\* berth *\
Minimize
OBJ: 406 mid_for_y_0 + 588 mid_for_y_1 + 450 mid_for_y_10 + 565 mid_for_y_11
 + 454 mid_for_y_12 + 523 mid_for_y_13 + 547 mid_for_y_14 + 586 mid_for_y_15
 + 400 mid_for_y_16 + 493 mid_for_y_17 + 575 mid_for_y_18 + 598 mid_for_y_19
 + 506 mid_for_y_2 + 402 mid_for_y_20 + 462 mid_for_y_21 + 415 mid_for_y_22
 + 440 mid_for_y_23 + 498 mid_for_y_24 + 406 mid_for_y_25 + 463 mid_for_y_26
 + 434 mid_for_y_27 + 551 mid_for_y_28 + 567 mid_for_y_29 + 426 mid_for_y_3
 + 435 mid_for_y_30 + 518 mid_for_y_31 + 435 mid_for_y_32 + 569 mid_for_y_33
 + 406 mid_for_y_34 + 586 mid_for_y_35 + 552 mid_for_y_36 + 465 mid_for_y_37
 + 555 mid_for_y_38 + 499 mid_for_y_39 + 573 mid_for_y_4 + 495 mid_for_y_40
 + 419 mid_for_y_41 + 586 mid_for_y_42 + 557 mid_for_y_43 + 406 mid_for_y_44
 + 555 mid_for_y_45 + 486 mid_for_y_46 + 579 mid_for_y_47 + 525 mid_for_y_48
 + 485 mid_for_y_49 + 439 mid_for_y_5 + 415 mid_for_y_50 + 535 mid_for_y_51
 + 557 mid_for_y_52 + 443 mid_for_y_53 + 416 mid_for_y_54 + 565 mid_for_y_55
 + 478 mid_for_y_56 + 410 mid_for_y_57 + 517 mid_for_y_58 + 560 mid_for_y_59
 + 523 mid_for_y_6 + 424 mid_for_y_60 + 594 mid_for_y_61 + 404 mid_for_y_62
 + 513 mid_for_y_63 + 567 mid_for_y_64 + 583 mid_for_y_65 + 509 mid_for_y_66
 + 442 mid_for_y_67 + 559 mid_for_y_68 + 461 mid_for_y_69 + 536 mid_for_y_7
 + 478 mid_for_y_70 + 576 mid_for_y_71 + 466 mid_for_y_72 + 464 mid_for_y_73
 + 564 mid_for_y_74 + 577 mid_for_y_75 + 510 mid_for_y_76 + 527 mid_for_y_77
 + 465 mid_for_y_78 + 576 mid_for_y_79 + 485 mid_for_y_8 + 524 mid_for_y_9
 + 400 mid_x_0 + 472 mid_x_1 + 510 mid_x_10 + 406 mid_x_11 + 479 mid_x_12
 + 401 mid_x_13 + 419 mid_x_14 + 494 mid_x_15 + 572 mid_x_16 + 405 mid_x_17
 + 431 mid_x_18 + 554 mid_x_19 + 561 mid_x_2 + 434 mid_x_20 + 517 mid_x_21
 + 470 mid_x_22 + 573 mid_x_23 + 472 mid_x_24 + 548 mid_x_25 + 575 mid_x_26
 + 518 mid_x_27 + 417 mid_x_28 + 415 mid_x_29 + 508 mid_x_3 + 484 mid_x_30
 + 474 mid_x_31 + 440 mid_x_32 + 533 mid_x_33 + 489 mid_x_34 + 571 mid_x_35
 + 588 mid_x_36 + 443 mid_x_37 + 520 mid_x_38 + 410 mid_x_39 + 454 mid_x_4
 + 482 mid_x_40 + 526 mid_x_41 + 527 mid_x_42 + 418 mid_x_43 + 469 mid_x_44
 + 526 mid_x_45 + 482 mid_x_46 + 487 mid_x_47 + 585 mid_x_48 + 584 mid_x_49
 + 468 mid_x_5 + 483 mid_x_50 + 441 mid_x_51 + 531 mid_x_52 + 552 mid_x_53
 + 493 mid_x_54 + 568 mid_x_55 + 452 mid_x_56 + 403 mid_x_57 + 559 mid_x_58
 + 459 mid_x_59 + 541 mid_x_6 + 472 mid_x_60 + 400 mid_x_61 + 578 mid_x_62
 + 591 mid_x_63 + 406 mid_x_64 + 539 mid_x_65 + 506 mid_x_66 + 552 mid_x_67
 + 520 mid_x_68 + 569 mid_x_69 + 541 mid_x_7 + 518 mid_x_70 + 508 mid_x_71
 + 597 mid_x_72 + 423 mid_x_73 + 443 mid_x_74 + 405 mid_x_75 + 458 mid_x_76
 + 442 mid_x_77 + 457 mid_x_78 + 568 mid_x_79 + 443 mid_x_8 + 554 mid_x_9
Subject To
_C1: mid_x_0 >= 0
_C10: - mid_x_1 - x_1 <= -941
_C100: mid_for_y_12 >= 0
_C101: mid_for_y_12 - y_12 >= -740
_C102: x_12 <= 1314
_C103: y_12 >= 740
_C104: x_12 >= 0
_C105: mid_x_13 >= 0
_C106: - mid_x_13 - x_13 <= -718
_C107: mid_x_13 - x_13 >= -718
_C108: mid_for_y_13 >= 0
_C109: mid_for_y_13 - y_13 >= -610
_C11: mid_x_1 - x_1 >= -941
_C110: x_13 <= 1311
_C111: y_13 >= 610
_C112: x_13 >= 0
_C113: mid_x_14 >= 0
_C114: - mid_x_14 - x_14 <= -312
_C115: mid_x_14 - x_14 >= -312
_C116: mid_for_y_14 >= 0
_C117: mid_for_y_14 - y_14 >= -28
_C118: x_14 <= 1311
_C119: y_14 >= 28
_C12: mid_for_y_1 >= 0
_C120: x_14 >= 0
_C121: mid_x_15 >= 0
_C122: - mid_x_15 - x_15 <= -1190
_C123: mid_x_15 - x_15 >= -1190
_C124: mid_for_y_15 >= 0
_C125: mid_for_y_15 - y_15 >= -534
_C126: x_15 <= 1311
_C127: y_15 >= 534
_C128: x_15 >= 0
_C129: mid_x_16 >= 0
_C13: mid_for_y_1 - y_1 >= -637
_C130: - mid_x_16 - x_16 <= -209
_C131: mid_x_16 - x_16 >= -209
_C132: mid_for_y_16 >= 0
_C133: mid_for_y_16 - y_16 >= -98
_C134: x_16 <= 1329
_C135: y_16 >= 98
_C136: x_16 >= 0
_C137: mid_x_17 >= 0
_C138: - mid_x_17 - x_17 <= -55
_C139: mid_x_17 - x_17 >= -55
_C14: x_1 <= 1315
_C140: mid_for_y_17 >= 0
_C141: mid_for_y_17 - y_17 >= -619
_C142: x_17 <= 1324
_C143: y_17 >= 619
_C144: x_17 >= 0
_C145: mid_x_18 >= 0
_C146: - mid_x_18 - x_18 <= -88
_C147: mid_x_18 - x_18 >= -88
_C148: mid_for_y_18 >= 0
_C149: mid_for_y_18 - y_18 >= -109
_C15: y_1 >= 637
_C150: x_18 <= 1312
_C151: y_18 >= 109
_C152: x_18 >= 0
_C153: mid_x_19 >= 0
_C154: - mid_x_19 - x_19 <= -790
_C155: mid_x_19 - x_19 >= -790
_C156: mid_for_y_19 >= 0
_C157: mid_for_y_19 - y_19 >= -475
_C158: x_19 <= 1325
_C159: y_19 >= 475
_C16: x_1 >= 0
_C160: x_19 >= 0
_C161: mid_x_20 >= 0
_C162: - mid_x_20 - x_20 <= -1032
_C163: mid_x_20 - x_20 >= -1032
_C164: mid_for_y_20 >= 0
_C165: mid_for_y_20 - y_20 >= -315
_C166: x_20 <= 1328
_C167: y_20 >= 315
_C168: x_20 >= 0
_C169: mid_x_21 >= 0
_C17: mid_x_2 >= 0
_C170: - mid_x_21 - x_21 <= -1012
_C171: mid_x_21 - x_21 >= -1012
_C172: mid_for_y_21 >= 0
_C173: mid_for_y_21 - y_21 >= -130
_C174: x_21 <= 1322
_C175: y_21 >= 130
_C176: x_21 >= 0
_C177: mid_x_22 >= 0
_C178: - mid_x_22 - x_22 <= -1020
_C179: mid_x_22 - x_22 >= -1020
_C18: - mid_x_2 - x_2 <= -1383
_C180: mid_for_y_22 >= 0
_C181: mid_for_y_22 - y_22 >= -709
_C182: x_22 <= 1330
_C183: y_22 >= 709
_C184: x_22 >= 0
_C185: mid_x_23 >= 0
_C186: - mid_x_23 - x_23 <= -723
_C187: mid_x_23 - x_23 >= -723
_C188: mid_for_y_23 >= 0
_C189: mid_for_y_23 - y_23 >= -268
_C19: mid_x_2 - x_2 >= -1383
_C190: x_23 <= 1329
_C191: y_23 >= 268
_C192: x_23 >= 0
_C193: mid_x_24 >= 0
_C194: - mid_x_24 - x_24 <= -123
_C195: mid_x_24 - x_24 >= -123
_C196: mid_for_y_24 >= 0
_C197: mid_for_y_24 - y_24 >= -521
_C198: x_24 <= 1312
_C199: y_24 >= 521
_C2: - mid_x_0 - x_0 <= -1168
_C20: mid_for_y_2 >= 0
_C200: x_24 >= 0
_C201: mid_x_25 >= 0
_C202: - mid_x_25 - x_25 <= -516
_C203: mid_x_25 - x_25 >= -516
_C204: mid_for_y_25 >= 0
_C205: mid_for_y_25 - y_25 >= -177
_C206: x_25 <= 1326
_C207: y_25 >= 177
_C208: x_25 >= 0
_C209: mid_x_26 >= 0
_C21: mid_for_y_2 - y_2 >= -482
_C210: - mid_x_26 - x_26 <= -304
_C211: mid_x_26 - x_26 >= -304
_C212: mid_for_y_26 >= 0
_C213: mid_for_y_26 - y_26 >= -714
_C214: x_26 <= 1324
_C215: y_26 >= 714
_C216: x_26 >= 0
_C217: mid_x_27 >= 0
_C218: - mid_x_27 - x_27 <= -529
_C219: mid_x_27 - x_27 >= -529
_C22: x_2 <= 1319
_C220: mid_for_y_27 >= 0
_C221: mid_for_y_27 - y_27 >= -310
_C222: x_27 <= 1318
_C223: y_27 >= 310
_C224: x_27 >= 0
_C225: mid_x_28 >= 0
_C226: - mid_x_28 - x_28 <= -229
_C227: mid_x_28 - x_28 >= -229
_C228: mid_for_y_28 >= 0
_C229: mid_for_y_28 - y_28 >= -535
_C23: y_2 >= 482
_C230: x_28 <= 1313
_C231: y_28 >= 535
_C232: x_28 >= 0
_C233: mid_x_29 >= 0
_C234: - mid_x_29 - x_29 <= -477
_C235: mid_x_29 - x_29 >= -477
_C236: mid_for_y_29 >= 0
_C237: mid_for_y_29 - y_29 >= -479
_C238: x_29 <= 1329
_C239: y_29 >= 479
_C24: x_2 >= 0
_C240: x_29 >= 0
_C241: mid_x_30 >= 0
_C242: - mid_x_30 - x_30 <= -353
_C243: mid_x_30 - x_30 >= -353
_C244: mid_for_y_30 >= 0
_C245: mid_for_y_30 - y_30 >= -115
_C246: x_30 <= 1312
_C247: y_30 >= 115
_C248: x_30 >= 0
_C249: mid_x_31 >= 0
_C25: mid_x_3 >= 0
_C250: - mid_x_31 - x_31 <= -19
_C251: mid_x_31 - x_31 >= -19
_C252: mid_for_y_31 >= 0
_C253: mid_for_y_31 - y_31 >= -188
_C254: x_31 <= 1328
_C255: y_31 >= 188
_C256: x_31 >= 0
_C257: mid_x_32 >= 0
_C258: - mid_x_32 - x_32 <= -858
_C259: mid_x_32 - x_32 >= -858
_C26: - mid_x_3 - x_3 <= -365
_C260: mid_for_y_32 >= 0
_C261: mid_for_y_32 - y_32 >= -78
_C262: x_32 <= 1316
_C263: y_32 >= 78
_C264: x_32 >= 0
_C265: mid_x_33 >= 0
_C266: - mid_x_33 - x_33 <= -734
_C267: mid_x_33 - x_33 >= -734
_C268: mid_for_y_33 >= 0
_C269: mid_for_y_33 - y_33 >= -145
_C27: mid_x_3 - x_3 >= -365
_C270: x_33 <= 1311
_C271: y_33 >= 145
_C272: x_33 >= 0
_C273: mid_x_34 >= 0
_C274: - mid_x_34 - x_34 <= -1052
_C275: mid_x_34 - x_34 >= -1052
_C276: mid_for_y_34 >= 0
_C277: mid_for_y_34 - y_34 >= -641
_C278: x_34 <= 1328
_C279: y_34 >= 641
_C28: mid_for_y_3 >= 0
_C280: x_34 >= 0
_C281: mid_x_35 >= 0
_C282: - mid_x_35 - x_35 <= -1324
_C283: mid_x_35 - x_35 >= -1324
_C284: mid_for_y_35 >= 0
_C285: mid_for_y_35 - y_35 >= -665
_C286: x_35 <= 1321
_C287: y_35 >= 665
_C288: x_35 >= 0
_C289: mid_x_36 >= 0
_C29: mid_for_y_3 - y_3 >= -615
_C290: - mid_x_36 - x_36 <= -333
_C291: mid_x_36 - x_36 >= -333
_C292: mid_for_y_36 >= 0
_C293: mid_for_y_36 - y_36 >= -798
_C294: x_36 <= 1319
_C295: y_36 >= 798
_C296: x_36 >= 0
_C297: mid_x_37 >= 0
_C298: - mid_x_37 - x_37 <= -1371
_C299: mid_x_37 - x_37 >= -1371
_C3: mid_x_0 - x_0 >= -1168
_C30: x_3 <= 1320
_C300: mid_for_y_37 >= 0
_C301: mid_for_y_37 - y_37 >= -645
_C302: x_37 <= 1311
_C303: y_37 >= 645
_C304: x_37 >= 0
_C305: mid_x_38 >= 0
_C306: - mid_x_38 - x_38 <= -1396
_C307: mid_x_38 - x_38 >= -1396
_C308: mid_for_y_38 >= 0
_C309: mid_for_y_38 - y_38 >= -584
_C31: y_3 >= 615
_C310: x_38 <= 1311
_C311: y_38 >= 584
_C312: x_38 >= 0
_C313: mid_x_39 >= 0
_C314: - mid_x_39 - x_39 <= -734
_C315: mid_x_39 - x_39 >= -734
_C316: mid_for_y_39 >= 0
_C317: mid_for_y_39 - y_39 >= -468
_C318: x_39 <= 1312
_C319: y_39 >= 468
_C32: x_3 >= 0
_C320: x_39 >= 0
_C321: mid_x_40 >= 0
_C322: - mid_x_40 - x_40 <= -212
_C323: mid_x_40 - x_40 >= -212
_C324: mid_for_y_40 >= 0
_C325: mid_for_y_40 - y_40 >= -670
_C326: x_40 <= 1323
_C327: y_40 >= 670
_C328: x_40 >= 0
_C329: mid_x_41 >= 0
_C33: mid_x_4 >= 0
_C330: - mid_x_41 - x_41 <= -547
_C331: mid_x_41 - x_41 >= -547
_C332: mid_for_y_41 >= 0
_C333: mid_for_y_41 - y_41 >= -202
_C334: x_41 <= 1321
_C335: y_41 >= 202
_C336: x_41 >= 0
_C337: mid_x_42 >= 0
_C338: - mid_x_42 - x_42 <= -142
_C339: mid_x_42 - x_42 >= -142
_C34: - mid_x_4 - x_4 <= -1301
_C340: mid_for_y_42 >= 0
_C341: mid_for_y_42 - y_42 >= -672
_C342: x_42 <= 1319
_C343: y_42 >= 672
_C344: x_42 >= 0
_C345: mid_x_43 >= 0
_C346: - mid_x_43 - x_43 <= -334
_C347: mid_x_43 - x_43 >= -334
_C348: mid_for_y_43 >= 0
_C349: mid_for_y_43 - y_43 >= -182
_C35: mid_x_4 - x_4 >= -1301
_C350: x_43 <= 1312
_C351: y_43 >= 182
_C352: x_43 >= 0
_C353: mid_x_44 >= 0
_C354: - mid_x_44 - x_44 <= -930
_C355: mid_x_44 - x_44 >= -930
_C356: mid_for_y_44 >= 0
_C357: mid_for_y_44 - y_44 >= -704
_C358: x_44 <= 1323
_C359: y_44 >= 704
_C36: mid_for_y_4 >= 0
_C360: x_44 >= 0
_C361: mid_x_45 >= 0
_C362: - mid_x_45 - x_45 <= -875
_C363: mid_x_45 - x_45 >= -875
_C364: mid_for_y_45 >= 0
_C365: mid_for_y_45 - y_45 >= -403
_C366: x_45 <= 1319
_C367: y_45 >= 403
_C368: x_45 >= 0
_C369: mid_x_46 >= 0
_C37: mid_for_y_4 - y_4 >= -591
_C370: - mid_x_46 - x_46 <= -391
_C371: mid_x_46 - x_46 >= -391
_C372: mid_for_y_46 >= 0
_C373: mid_for_y_46 - y_46 >= -500
_C374: x_46 <= 1312
_C375: y_46 >= 500
_C376: x_46 >= 0
_C377: mid_x_47 >= 0
_C378: - mid_x_47 - x_47 <= -74
_C379: mid_x_47 - x_47 >= -74
_C38: x_4 <= 1324
_C380: mid_for_y_47 >= 0
_C381: mid_for_y_47 - y_47 >= -390
_C382: x_47 <= 1313
_C383: y_47 >= 390
_C384: x_47 >= 0
_C385: mid_x_48 >= 0
_C386: - mid_x_48 - x_48 <= -571
_C387: mid_x_48 - x_48 >= -571
_C388: mid_for_y_48 >= 0
_C389: mid_for_y_48 - y_48 >= -752
_C39: y_4 >= 591
_C390: x_48 <= 1327
_C391: y_48 >= 752
_C392: x_48 >= 0
_C393: mid_x_49 >= 0
_C394: - mid_x_49 - x_49 <= -760
_C395: mid_x_49 - x_49 >= -760
_C396: mid_for_y_49 >= 0
_C397: mid_for_y_49 - y_49 >= -85
_C398: x_49 <= 1314
_C399: y_49 >= 85
_C4: mid_for_y_0 >= 0
_C40: x_4 >= 0
_C400: x_49 >= 0
_C401: mid_x_50 >= 0
_C402: - mid_x_50 - x_50 <= -90
_C403: mid_x_50 - x_50 >= -90
_C404: mid_for_y_50 >= 0
_C405: mid_for_y_50 - y_50 >= -352
_C406: x_50 <= 1330
_C407: y_50 >= 352
_C408: x_50 >= 0
_C409: mid_x_51 >= 0
_C41: mid_x_5 >= 0
_C410: - mid_x_51 - x_51 <= -787
_C411: mid_x_51 - x_51 >= -787
_C412: mid_for_y_51 >= 0
_C413: mid_for_y_51 - y_51 >= -379
_C414: x_51 <= 1324
_C415: y_51 >= 379
_C416: x_51 >= 0
_C417: mid_x_52 >= 0
_C418: - mid_x_52 - x_52 <= -351
_C419: mid_x_52 - x_52 >= -351
_C42: - mid_x_5 - x_5 <= -1123
_C420: mid_for_y_52 >= 0
_C421: mid_for_y_52 - y_52 >= -513
_C422: x_52 <= 1312
_C423: y_52 >= 513
_C424: x_52 >= 0
_C425: mid_x_53 >= 0
_C426: - mid_x_53 - x_53 <= -391
_C427: mid_x_53 - x_53 >= -391
_C428: mid_for_y_53 >= 0
_C429: mid_for_y_53 - y_53 >= -113
_C43: mid_x_5 - x_5 >= -1123
_C430: x_53 <= 1317
_C431: y_53 >= 113
_C432: x_53 >= 0
_C433: mid_x_54 >= 0
_C434: - mid_x_54 - x_54 <= -169
_C435: mid_x_54 - x_54 >= -169
_C436: mid_for_y_54 >= 0
_C437: mid_for_y_54 - y_54 >= -293
_C438: x_54 <= 1318
_C439: y_54 >= 293
_C44: mid_for_y_5 >= 0
_C440: x_54 >= 0
_C441: mid_x_55 >= 0
_C442: - mid_x_55 - x_55 <= -954
_C443: mid_x_55 - x_55 >= -954
_C444: mid_for_y_55 >= 0
_C445: mid_for_y_55 - y_55 >= -370
_C446: x_55 <= 1326
_C447: y_55 >= 370
_C448: x_55 >= 0
_C449: mid_x_56 >= 0
_C45: mid_for_y_5 - y_5 >= -677
_C450: - mid_x_56 - x_56 <= -800
_C451: mid_x_56 - x_56 >= -800
_C452: mid_for_y_56 >= 0
_C453: mid_for_y_56 - y_56 >= -7
_C454: x_56 <= 1327
_C455: y_56 >= 7
_C456: x_56 >= 0
_C457: mid_x_57 >= 0
_C458: - mid_x_57 - x_57 <= -10
_C459: mid_x_57 - x_57 >= -10
_C46: x_5 <= 1324
_C460: mid_for_y_57 >= 0
_C461: mid_for_y_57 - y_57 >= -604
_C462: x_57 <= 1313
_C463: y_57 >= 604
_C464: x_57 >= 0
_C465: mid_x_58 >= 0
_C466: - mid_x_58 - x_58 <= -629
_C467: mid_x_58 - x_58 >= -629
_C468: mid_for_y_58 >= 0
_C469: mid_for_y_58 - y_58 >= -123
_C47: y_5 >= 677
_C470: x_58 <= 1314
_C471: y_58 >= 123
_C472: x_58 >= 0
_C473: mid_x_59 >= 0
_C474: - mid_x_59 - x_59 <= -1311
_C475: mid_x_59 - x_59 >= -1311
_C476: mid_for_y_59 >= 0
_C477: mid_for_y_59 - y_59 >= -288
_C478: x_59 <= 1327
_C479: y_59 >= 288
_C48: x_5 >= 0
_C480: x_59 >= 0
_C481: mid_x_60 >= 0
_C482: - mid_x_60 - x_60 <= -1265
_C483: mid_x_60 - x_60 >= -1265
_C484: mid_for_y_60 >= 0
_C485: mid_for_y_60 - y_60 >= -596
_C486: x_60 <= 1311
_C487: y_60 >= 596
_C488: x_60 >= 0
_C489: mid_x_61 >= 0
_C49: mid_x_6 >= 0
_C490: - mid_x_61 - x_61 <= -868
_C491: mid_x_61 - x_61 >= -868
_C492: mid_for_y_61 >= 0
_C493: mid_for_y_61 - y_61 >= -65
_C494: x_61 <= 1326
_C495: y_61 >= 65
_C496: x_61 >= 0
_C497: mid_x_62 >= 0
_C498: - mid_x_62 - x_62 <= -49
_C499: mid_x_62 - x_62 >= -49
_C5: mid_for_y_0 - y_0 >= -290
_C50: - mid_x_6 - x_6 <= -619
_C500: mid_for_y_62 >= 0
_C501: mid_for_y_62 - y_62 >= -406
_C502: x_62 <= 1328
_C503: y_62 >= 406
_C504: x_62 >= 0
_C505: mid_x_63 >= 0
_C506: - mid_x_63 - x_63 <= -1134
_C507: mid_x_63 - x_63 >= -1134
_C508: mid_for_y_63 >= 0
_C509: mid_for_y_63 - y_63 >= -340
_C51: mid_x_6 - x_6 >= -619
_C510: x_63 <= 1327
_C511: y_63 >= 340
_C512: x_63 >= 0
_C513: mid_x_64 >= 0
_C514: - mid_x_64 - x_64 <= -492
_C515: mid_x_64 - x_64 >= -492
_C516: mid_for_y_64 >= 0
_C517: mid_for_y_64 - y_64 >= -183
_C518: x_64 <= 1329
_C519: y_64 >= 183
_C52: mid_for_y_6 >= 0
_C520: x_64 >= 0
_C521: mid_x_65 >= 0
_C522: - mid_x_65 - x_65 <= -558
_C523: mid_x_65 - x_65 >= -558
_C524: mid_for_y_65 >= 0
_C525: mid_for_y_65 - y_65 >= -124
_C526: x_65 <= 1322
_C527: y_65 >= 124
_C528: x_65 >= 0
_C529: mid_x_66 >= 0
_C53: mid_for_y_6 - y_6 >= -286
_C530: - mid_x_66 - x_66 <= -618
_C531: mid_x_66 - x_66 >= -618
_C532: mid_for_y_66 >= 0
_C533: mid_for_y_66 - y_66 >= -495
_C534: x_66 <= 1312
_C535: y_66 >= 495
_C536: x_66 >= 0
_C537: mid_x_67 >= 0
_C538: - mid_x_67 - x_67 <= -1231
_C539: mid_x_67 - x_67 >= -1231
_C54: x_6 <= 1324
_C540: mid_for_y_67 >= 0
_C541: mid_for_y_67 - y_67 >= -382
_C542: x_67 <= 1322
_C543: y_67 >= 382
_C544: x_67 >= 0
_C545: mid_x_68 >= 0
_C546: - mid_x_68 - x_68 <= -649
_C547: mid_x_68 - x_68 >= -649
_C548: mid_for_y_68 >= 0
_C549: mid_for_y_68 - y_68 >= -712
_C55: y_6 >= 286
_C550: x_68 <= 1329
_C551: y_68 >= 712
_C552: x_68 >= 0
_C553: mid_x_69 >= 0
_C554: - mid_x_69 - x_69 <= -823
_C555: mid_x_69 - x_69 >= -823
_C556: mid_for_y_69 >= 0
_C557: mid_for_y_69 - y_69 >= -695
_C558: x_69 <= 1317
_C559: y_69 >= 695
_C56: x_6 >= 0
_C560: x_69 >= 0
_C561: mid_x_70 >= 0
_C562: - mid_x_70 - x_70 <= -1207
_C563: mid_x_70 - x_70 >= -1207
_C564: mid_for_y_70 >= 0
_C565: mid_for_y_70 - y_70 >= -539
_C566: x_70 <= 1315
_C567: y_70 >= 539
_C568: x_70 >= 0
_C569: mid_x_71 >= 0
_C57: mid_x_7 >= 0
_C570: - mid_x_71 - x_71 <= -948
_C571: mid_x_71 - x_71 >= -948
_C572: mid_for_y_71 >= 0
_C573: mid_for_y_71 - y_71 >= -39
_C574: x_71 <= 1328
_C575: y_71 >= 39
_C576: x_71 >= 0
_C577: mid_x_72 >= 0
_C578: - mid_x_72 - x_72 <= -323
_C579: mid_x_72 - x_72 >= -323
_C58: - mid_x_7 - x_7 <= -140
_C580: mid_for_y_72 >= 0
_C581: mid_for_y_72 - y_72 >= -145
_C582: x_72 <= 1312
_C583: y_72 >= 145
_C584: x_72 >= 0
_C585: mid_x_73 >= 0
_C586: - mid_x_73 - x_73 <= -107
_C587: mid_x_73 - x_73 >= -107
_C588: mid_for_y_73 >= 0
_C589: mid_for_y_73 - y_73 >= -531
_C59: mid_x_7 - x_7 >= -140
_C590: x_73 <= 1317
_C591: y_73 >= 531
_C592: x_73 >= 0
_C593: mid_x_74 >= 0
_C594: - mid_x_74 - x_74 <= -901
_C595: mid_x_74 - x_74 >= -901
_C596: mid_for_y_74 >= 0
_C597: mid_for_y_74 - y_74 >= -412
_C598: x_74 <= 1330
_C599: y_74 >= 412
_C6: x_0 <= 1327
_C60: mid_for_y_7 >= 0
_C600: x_74 >= 0
_C601: mid_x_75 >= 0
_C602: - mid_x_75 - x_75 <= -987
_C603: mid_x_75 - x_75 >= -987
_C604: mid_for_y_75 >= 0
_C605: mid_for_y_75 - y_75 >= -500
_C606: x_75 <= 1319
_C607: y_75 >= 500
_C608: x_75 >= 0
_C609: mid_x_76 >= 0
_C61: mid_for_y_7 - y_7 >= -185
_C610: - mid_x_76 - x_76 <= -1131
_C611: mid_x_76 - x_76 >= -1131
_C612: mid_for_y_76 >= 0
_C613: mid_for_y_76 - y_76 >= -517
_C614: x_76 <= 1318
_C615: y_76 >= 517
_C616: x_76 >= 0
_C617: mid_x_77 >= 0
_C618: - mid_x_77 - x_77 <= -633
_C619: mid_x_77 - x_77 >= -633
_C62: x_7 <= 1311
_C620: mid_for_y_77 >= 0
_C621: mid_for_y_77 - y_77 >= -698
_C622: x_77 <= 1327
_C623: y_77 >= 698
_C624: x_77 >= 0
_C625: mid_x_78 >= 0
_C626: - mid_x_78 - x_78 <= -697
_C627: mid_x_78 - x_78 >= -697
_C628: mid_for_y_78 >= 0
_C629: mid_for_y_78 - y_78 >= -455
_C63: y_7 >= 185
_C630: x_78 <= 1329
_C631: y_78 >= 455
_C632: x_78 >= 0
_C633: mid_x_79 >= 0
_C634: - mid_x_79 - x_79 <= -1295
_C635: mid_x_79 - x_79 >= -1295
_C636: mid_for_y_79 >= 0
_C637: mid_for_y_79 - y_79 >= -111
_C638: x_79 <= 1329
_C639: y_79 >= 111
_C64: x_7 >= 0
_C640: x_79 >= 0
_C641: x_22 - x_8 + 100000000 z_x_(22,_8) <= 99999930
_C642: - x_22 + x_8 + 100000000 z_x_(8,_22) <= 99999930
_C643: y_22 - y_8 + 100000000 z_y_(22,_8) <= 99999978
_C644: - y_22 + y_8 + 100000000 z_y_(8,_22) <= 99999976
_C645: z_x_(22,_8) + z_x_(8,_22) + z_y_(22,_8) + z_y_(8,_22) >= 1
_C646: - x_35 + x_37 + 100000000 z_x_(37,_35) <= 99999911
_C647: x_35 - x_37 + 100000000 z_x_(35,_37) <= 99999921
_C648: - y_35 + y_37 + 100000000 z_y_(37,_35) <= 99999974
_C649: y_35 - y_37 + 100000000 z_y_(35,_37) <= 99999981
_C65: mid_x_8 >= 0
_C650: z_x_(35,_37) + z_x_(37,_35) + z_y_(35,_37) + z_y_(37,_35) >= 1
_C651: x_38 - x_4 + 100000000 z_x_(38,_4) <= 99999911
_C652: - x_38 + x_4 + 100000000 z_x_(4,_38) <= 99999924
_C653: y_38 - y_4 + 100000000 z_y_(38,_4) <= 99999976
_C654: - y_38 + y_4 + 100000000 z_y_(4,_38) <= 99999971
_C655: z_x_(38,_4) + z_x_(4,_38) + z_y_(38,_4) + z_y_(4,_38) >= 1
_C656: - x_19 + x_39 + 100000000 z_x_(39,_19) <= 99999912
_C657: x_19 - x_39 + 100000000 z_x_(19,_39) <= 99999925
_C658: - y_19 + y_39 + 100000000 z_y_(39,_19) <= 99999973
_C659: y_19 - y_39 + 100000000 z_y_(19,_39) <= 99999971
_C66: - mid_x_8 - x_8 <= -980
_C660: z_x_(19,_39) + z_x_(39,_19) + z_y_(19,_39) + z_y_(39,_19) >= 1
_C661: - x_40 + x_42 + 100000000 z_x_(42,_40) <= 99999919
_C662: x_40 - x_42 + 100000000 z_x_(40,_42) <= 99999923
_C663: - y_40 + y_42 + 100000000 z_y_(42,_40) <= 99999977
_C664: y_40 - y_42 + 100000000 z_y_(40,_42) <= 99999972
_C665: z_x_(40,_42) + z_x_(42,_40) + z_y_(40,_42) + z_y_(42,_40) >= 1
_C666: x_44 - x_8 + 100000000 z_x_(44,_8) <= 99999923
_C667: - x_44 + x_8 + 100000000 z_x_(8,_44) <= 99999930
_C668: y_44 - y_8 + 100000000 z_y_(44,_8) <= 99999974
_C669: - y_44 + y_8 + 100000000 z_y_(8,_44) <= 99999976
_C67: mid_x_8 - x_8 >= -980
_C670: z_x_(44,_8) + z_x_(8,_44) + z_y_(44,_8) + z_y_(8,_44) >= 1
_C671: - x_29 + x_46 + 100000000 z_x_(46,_29) <= 99999912
_C672: x_29 - x_46 + 100000000 z_x_(29,_46) <= 99999929
_C673: - y_29 + y_46 + 100000000 z_y_(46,_29) <= 99999971
_C674: y_29 - y_46 + 100000000 z_y_(29,_46) <= 99999973
_C675: z_x_(29,_46) + z_x_(46,_29) + z_y_(29,_46) + z_y_(46,_29) >= 1
_C676: - x_46 + x_52 + 100000000 z_x_(52,_46) <= 99999912
_C677: x_46 - x_52 + 100000000 z_x_(46,_52) <= 99999912
_C678: - y_46 + y_52 + 100000000 z_y_(52,_46) <= 99999974
_C679: y_46 - y_52 + 100000000 z_y_(46,_52) <= 99999971
_C68: mid_for_y_8 >= 0
_C680: z_x_(46,_52) + z_x_(52,_46) + z_y_(46,_52) + z_y_(52,_46) >= 1
_C681: - x_30 + x_53 + 100000000 z_x_(53,_30) <= 99999917
_C682: x_30 - x_53 + 100000000 z_x_(30,_53) <= 99999912
_C683: - y_30 + y_53 + 100000000 z_y_(53,_30) <= 99999973
_C684: y_30 - y_53 + 100000000 z_y_(30,_53) <= 99999974
_C685: z_x_(30,_53) + z_x_(53,_30) + z_y_(30,_53) + z_y_(53,_30) >= 1
_C686: - x_17 + x_57 + 100000000 z_x_(57,_17) <= 99999913
_C687: x_17 - x_57 + 100000000 z_x_(17,_57) <= 99999924
_C688: - y_17 + y_57 + 100000000 z_y_(57,_17) <= 99999972
_C689: y_17 - y_57 + 100000000 z_y_(17,_57) <= 99999973
_C69: mid_for_y_8 - y_8 >= -687
_C690: z_x_(17,_57) + z_x_(57,_17) + z_y_(17,_57) + z_y_(57,_17) >= 1
_C691: - x_4 + x_60 + 100000000 z_x_(60,_4) <= 99999911
_C692: x_4 - x_60 + 100000000 z_x_(4,_60) <= 99999924
_C693: - y_4 + y_60 + 100000000 z_y_(60,_4) <= 99999974
_C694: y_4 - y_60 + 100000000 z_y_(4,_60) <= 99999971
_C695: z_x_(4,_60) + z_x_(60,_4) + z_y_(4,_60) + z_y_(60,_4) >= 1
_C696: - x_38 + x_60 + 100000000 z_x_(60,_38) <= 99999911
_C697: x_38 - x_60 + 100000000 z_x_(38,_60) <= 99999911
_C698: - y_38 + y_60 + 100000000 z_y_(60,_38) <= 99999974
_C699: y_38 - y_60 + 100000000 z_y_(38,_60) <= 99999976
_C7: y_0 >= 290
_C70: x_8 <= 1330
_C700: z_x_(38,_60) + z_x_(60,_38) + z_y_(38,_60) + z_y_(60,_38) >= 1
_C701: - x_32 + x_61 + 100000000 z_x_(61,_32) <= 99999926
_C702: x_32 - x_61 + 100000000 z_x_(32,_61) <= 99999916
_C703: - y_32 + y_61 + 100000000 z_y_(61,_32) <= 99999972
_C704: y_32 - y_61 + 100000000 z_y_(32,_61) <= 99999979
_C705: z_x_(32,_61) + z_x_(61,_32) + z_y_(32,_61) + z_y_(61,_32) >= 1
_C706: - x_47 + x_62 + 100000000 z_x_(62,_47) <= 99999928
_C707: x_47 - x_62 + 100000000 z_x_(47,_62) <= 99999913
_C708: - y_47 + y_62 + 100000000 z_y_(62,_47) <= 99999978
_C709: y_47 - y_62 + 100000000 z_y_(47,_62) <= 99999976
_C71: y_8 >= 687
_C710: z_x_(47,_62) + z_x_(62,_47) + z_y_(47,_62) + z_y_(62,_47) >= 1
_C711: - x_25 + x_64 + 100000000 z_x_(64,_25) <= 99999929
_C712: x_25 - x_64 + 100000000 z_x_(25,_64) <= 99999926
_C713: - y_25 + y_64 + 100000000 z_y_(64,_25) <= 99999973
_C714: y_25 - y_64 + 100000000 z_y_(25,_64) <= 99999980
_C715: z_x_(25,_64) + z_x_(64,_25) + z_y_(25,_64) + z_y_(64,_25) >= 1
_C716: - x_41 + x_64 + 100000000 z_x_(64,_41) <= 99999929
_C717: x_41 - x_64 + 100000000 z_x_(41,_64) <= 99999921
_C718: - y_41 + y_64 + 100000000 z_y_(64,_41) <= 99999973
_C719: y_41 - y_64 + 100000000 z_y_(41,_64) <= 99999978
_C72: x_8 >= 0
_C720: z_x_(41,_64) + z_x_(64,_41) + z_y_(41,_64) + z_y_(64,_41) >= 1
_C721: - x_58 + x_65 + 100000000 z_x_(65,_58) <= 99999922
_C722: x_58 - x_65 + 100000000 z_x_(58,_65) <= 99999914
_C723: - y_58 + y_65 + 100000000 z_y_(65,_58) <= 99999981
_C724: y_58 - y_65 + 100000000 z_y_(58,_65) <= 99999974
_C725: z_x_(58,_65) + z_x_(65,_58) + z_y_(58,_65) + z_y_(65,_58) >= 1
_C726: - x_15 + x_70 + 100000000 z_x_(70,_15) <= 99999915
_C727: x_15 - x_70 + 100000000 z_x_(15,_70) <= 99999911
_C728: - y_15 + y_70 + 100000000 z_y_(70,_15) <= 99999971
_C729: y_15 - y_70 + 100000000 z_y_(15,_70) <= 99999975
_C73: mid_x_9 >= 0
_C730: z_x_(15,_70) + z_x_(70,_15) + z_y_(15,_70) + z_y_(70,_15) >= 1
_C731: - x_24 + x_73 + 100000000 z_x_(73,_24) <= 99999917
_C732: x_24 - x_73 + 100000000 z_x_(24,_73) <= 99999912
_C733: - y_24 + y_73 + 100000000 z_y_(73,_24) <= 99999980
_C734: y_24 - y_73 + 100000000 z_y_(24,_73) <= 99999975
_C735: z_x_(24,_73) + z_x_(73,_24) + z_y_(24,_73) + z_y_(73,_24) >= 1
_C736: - x_45 + x_74 + 100000000 z_x_(74,_45) <= 99999930
_C737: x_45 - x_74 + 100000000 z_x_(45,_74) <= 99999919
_C738: - y_45 + y_74 + 100000000 z_y_(74,_45) <= 99999977
_C739: y_45 - y_74 + 100000000 z_y_(45,_74) <= 99999981
_C74: - mid_x_9 - x_9 <= -422
_C740: z_x_(45,_74) + z_x_(74,_45) + z_y_(45,_74) + z_y_(74,_45) >= 1
_C741: - x_15 + x_76 + 100000000 z_x_(76,_15) <= 99999918
_C742: x_15 - x_76 + 100000000 z_x_(15,_76) <= 99999911
_C743: - y_15 + y_76 + 100000000 z_y_(76,_15) <= 99999974
_C744: y_15 - y_76 + 100000000 z_y_(15,_76) <= 99999975
_C745: z_x_(15,_76) + z_x_(76,_15) + z_y_(15,_76) + z_y_(76,_15) >= 1
_C746: - x_70 + x_76 + 100000000 z_x_(76,_70) <= 99999918
_C747: x_70 - x_76 + 100000000 z_x_(70,_76) <= 99999915
_C748: - y_70 + y_76 + 100000000 z_y_(76,_70) <= 99999974
_C749: y_70 - y_76 + 100000000 z_y_(70,_76) <= 99999971
_C75: mid_x_9 - x_9 >= -422
_C750: z_x_(70,_76) + z_x_(76,_70) + z_y_(70,_76) + z_y_(76,_70) >= 1
_C751: - x_68 + x_77 + 100000000 z_x_(77,_68) <= 99999927
_C752: x_68 - x_77 + 100000000 z_x_(68,_77) <= 99999929
_C753: - y_68 + y_77 + 100000000 z_y_(77,_68) <= 99999976
_C754: y_68 - y_77 + 100000000 z_y_(68,_77) <= 99999971
_C755: z_x_(68,_77) + z_x_(77,_68) + z_y_(68,_77) + z_y_(77,_68) >= 1
_C756: - x_39 + x_78 + 100000000 z_x_(78,_39) <= 99999929
_C757: x_39 - x_78 + 100000000 z_x_(39,_78) <= 99999912
_C758: - y_39 + y_78 + 100000000 z_y_(78,_39) <= 99999979
_C759: y_39 - y_78 + 100000000 z_y_(39,_78) <= 99999973
_C76: mid_for_y_9 >= 0
_C760: z_x_(39,_78) + z_x_(78,_39) + z_y_(39,_78) + z_y_(78,_39) >= 1
_C761: - x_37 + x_60 + 100000000 z_x_(60,_37) <= 99999911
_C762: x_37 - x_60 + 100000000 z_x_(37,_60) <= 99999911
_C763: - y_37 + y_60 + 100000000 z_y_(60,_37) <= 99999974
_C764: y_37 - y_60 + 100000000 z_y_(37,_60) <= 99999974
_C765: z_x_(37,_60) + z_x_(60,_37) + z_y_(37,_60) + z_y_(60,_37) >= 1
_C766: - x_39 + x_66 + 100000000 z_x_(66,_39) <= 99999912
_C767: x_39 - x_66 + 100000000 z_x_(39,_66) <= 99999912
_C768: - y_39 + y_66 + 100000000 z_y_(66,_39) <= 99999973
_C769: y_39 - y_66 + 100000000 z_y_(39,_66) <= 99999973
_C77: mid_for_y_9 - y_9 >= -428
_C770: z_x_(39,_66) + z_x_(66,_39) + z_y_(39,_66) + z_y_(66,_39) >= 1
_C771: - x_30 + x_72 + 100000000 z_x_(72,_30) <= 99999912
_C772: x_30 - x_72 + 100000000 z_x_(30,_72) <= 99999912
_C773: - y_30 + y_72 + 100000000 z_y_(72,_30) <= 99999975
_C774: y_30 - y_72 + 100000000 z_y_(30,_72) <= 99999974
_C775: z_x_(30,_72) + z_x_(72,_30) + z_y_(30,_72) + z_y_(72,_30) >= 1
_C776: x_37 - x_4 + 100000000 z_x_(37,_4) <= 99999911
_C777: - x_37 + x_4 + 100000000 z_x_(4,_37) <= 99999924
_C778: y_37 - y_4 + 100000000 z_y_(37,_4) <= 99999974
_C779: - y_37 + y_4 + 100000000 z_y_(4,_37) <= 99999971
_C78: x_9 <= 1325
_C780: z_x_(37,_4) + z_x_(4,_37) + z_y_(37,_4) + z_y_(4,_37) >= 1
_C781: - x_53 + x_72 + 100000000 z_x_(72,_53) <= 99999912
_C782: x_53 - x_72 + 100000000 z_x_(53,_72) <= 99999917
_C783: - y_53 + y_72 + 100000000 z_y_(72,_53) <= 99999975
_C784: y_53 - y_72 + 100000000 z_y_(53,_72) <= 99999973
_C785: z_x_(53,_72) + z_x_(72,_53) + z_y_(53,_72) + z_y_(72,_53) >= 1
_C786: - x_60 + x_70 + 100000000 z_x_(70,_60) <= 99999915
_C787: x_60 - x_70 + 100000000 z_x_(60,_70) <= 99999911
_C788: - y_60 + y_70 + 100000000 z_y_(70,_60) <= 99999971
_C789: y_60 - y_70 + 100000000 z_y_(60,_70) <= 99999974
_C79: y_9 >= 428
_C790: z_x_(60,_70) + z_x_(70,_60) + z_y_(60,_70) + z_y_(70,_60) >= 1
_C791: - x_43 + x_72 + 100000000 z_x_(72,_43) <= 99999912
_C792: x_43 - x_72 + 100000000 z_x_(43,_72) <= 99999912
_C793: - y_43 + y_72 + 100000000 z_y_(72,_43) <= 99999975
_C794: y_43 - y_72 + 100000000 z_y_(43,_72) <= 99999971
_C795: z_x_(43,_72) + z_x_(72,_43) + z_y_(43,_72) + z_y_(72,_43) >= 1
_C8: x_0 >= 0
_C80: x_9 >= 0
_C81: mid_x_10 >= 0
_C82: - mid_x_10 - x_10 <= -781
_C83: mid_x_10 - x_10 >= -781
_C84: mid_for_y_10 >= 0
_C85: mid_for_y_10 - y_10 >= -574
_C86: x_10 <= 1323
_C87: y_10 >= 574
_C88: x_10 >= 0
_C89: mid_x_11 >= 0
_C9: mid_x_1 >= 0
_C90: - mid_x_11 - x_11 <= -628
_C91: mid_x_11 - x_11 >= -628
_C92: mid_for_y_11 >= 0
_C93: mid_for_y_11 - y_11 >= -21
_C94: x_11 <= 1311
_C95: y_11 >= 21
_C96: x_11 >= 0
_C97: mid_x_12 >= 0
_C98: - mid_x_12 - x_12 <= -1057
_C99: mid_x_12 - x_12 >= -1057
Binaries
z_x_(15,_70)
z_x_(15,_76)
z_x_(17,_57)
z_x_(19,_39)
z_x_(22,_8)
z_x_(24,_73)
z_x_(25,_64)
z_x_(29,_46)
z_x_(30,_53)
z_x_(30,_72)
z_x_(32,_61)
z_x_(35,_37)
z_x_(37,_35)
z_x_(37,_4)
z_x_(37,_60)
z_x_(38,_4)
z_x_(38,_60)
z_x_(39,_19)
z_x_(39,_66)
z_x_(39,_78)
z_x_(4,_37)
z_x_(4,_38)
z_x_(4,_60)
z_x_(40,_42)
z_x_(41,_64)
z_x_(42,_40)
z_x_(43,_72)
z_x_(44,_8)
z_x_(45,_74)
z_x_(46,_29)
z_x_(46,_52)
z_x_(47,_62)
z_x_(52,_46)
z_x_(53,_30)
z_x_(53,_72)
z_x_(57,_17)
z_x_(58,_65)
z_x_(60,_37)
z_x_(60,_38)
z_x_(60,_4)
z_x_(60,_70)
z_x_(61,_32)
z_x_(62,_47)
z_x_(64,_25)
z_x_(64,_41)
z_x_(65,_58)
z_x_(66,_39)
z_x_(68,_77)
z_x_(70,_15)
z_x_(70,_60)
z_x_(70,_76)
z_x_(72,_30)
z_x_(72,_43)
z_x_(72,_53)
z_x_(73,_24)
z_x_(74,_45)
z_x_(76,_15)
z_x_(76,_70)
z_x_(77,_68)
z_x_(78,_39)
z_x_(8,_22)
z_x_(8,_44)
z_y_(15,_70)
z_y_(15,_76)
z_y_(17,_57)
z_y_(19,_39)
z_y_(22,_8)
z_y_(24,_73)
z_y_(25,_64)
z_y_(29,_46)
z_y_(30,_53)
z_y_(30,_72)
z_y_(32,_61)
z_y_(35,_37)
z_y_(37,_35)
z_y_(37,_4)
z_y_(37,_60)
z_y_(38,_4)
z_y_(38,_60)
z_y_(39,_19)
z_y_(39,_66)
z_y_(39,_78)
z_y_(4,_37)
z_y_(4,_38)
z_y_(4,_60)
z_y_(40,_42)
z_y_(41,_64)
z_y_(42,_40)
z_y_(43,_72)
z_y_(44,_8)
z_y_(45,_74)
z_y_(46,_29)
z_y_(46,_52)
z_y_(47,_62)
z_y_(52,_46)
z_y_(53,_30)
z_y_(53,_72)
z_y_(57,_17)
z_y_(58,_65)
z_y_(60,_37)
z_y_(60,_38)
z_y_(60,_4)
z_y_(60,_70)
z_y_(61,_32)
z_y_(62,_47)
z_y_(64,_25)
z_y_(64,_41)
z_y_(65,_58)
z_y_(66,_39)
z_y_(68,_77)
z_y_(70,_15)
z_y_(70,_60)
z_y_(70,_76)
z_y_(72,_30)
z_y_(72,_43)
z_y_(72,_53)
z_y_(73,_24)
z_y_(74,_45)
z_y_(76,_15)
z_y_(76,_70)
z_y_(77,_68)
z_y_(78,_39)
z_y_(8,_22)
z_y_(8,_44)
End
